Maximize
	- 3 x2 + 5 x3 + 3 x4 
Maximize
	- 1 x1 + 6 x3 + 4 x4 
Maximize
	+ 5 x1 + 2 x3 + 6 x4 
Subject To
	+ 5 x1 + 4 x2 + 5 x4 <= 9
Bounds
	0 <= x1 <= 4
	0 <= x2 <= 4
	0 <= x3 <= 4
	0 <= x4 <= 4
Integers
	x1 x2 x3 x4 
End